p cnf 597
-7 -189
-8 -192
-9 -195
-10 -198
-11 -201
-12 -204
-13 205
-14 206
-15 207
-16 208
-17 209
-18 210
-19 211
-20 212
-21 -8
-21 -9
8 9 21
-22 -10
-22 -11
10 11 22
-23 -12
-23 -13
12 13 23
-24 -14
-24 -15
14 15 24
-25 -16
-25 -17
16 17 25
-26 -18
-26 -19
18 19 26
-27 21
-27 22
-21 -22 27
-28 23
-28 24
-23 -24 28
-29 25
-29 26
-25 -26 29
-30 27
-30 28
-27 -28 30
-31 -20
-31 29
20 -29 31
-32 30
-32 31
-30 -31 32
-33 -7
-33 8
7 -8 33
-34 7
-34 -8
-7 8 34
-35 -33
-35 -34
33 34 35
-36 7
-36 8
-7 -8 36
-37 -7
-37 -35
7 35 37
-38 7
-38 35
-7 -35 38
-39 -37
-39 -38
37 38 39
-40 7
-40 -35
-7 35 40
-41 -36
-41 -40
36 40 41
-42 -8
-42 9
8 -9 42
-43 8
-43 -9
-8 9 43
-44 -42
-44 -43
42 43 44
-45 8
-45 9
-8 -9 45
-46 41
-46 -44
-41 44 46
-47 -41
-47 44
41 -44 47
-48 -46
-48 -47
46 47 48
-49 -41
-49 -44
41 44 49
-50 -45
-50 -49
45 49 50
-51 -9
-51 10
9 -10 51
-52 9
-52 -10
-9 10 52
-53 -51
-53 -52
51 52 53
-54 9
-54 10
-9 -10 54
-55 50
-55 -53
-50 53 55
-56 -50
-56 53
50 -53 56
-57 -55
-57 -56
55 56 57
-58 -50
-58 -53
50 53 58
-59 -54
-59 -58
54 58 59
-60 -10
-60 11
10 -11 60
-61 10
-61 -11
-10 11 61
-62 -60
-62 -61
60 61 62
-63 10
-63 11
-10 -11 63
-64 59
-64 -62
-59 62 64
-65 -59
-65 62
59 -62 65
-66 -64
-66 -65
64 65 66
-67 -59
-67 -62
59 62 67
-68 -63
-68 -67
63 67 68
-69 -11
-69 12
11 -12 69
-70 11
-70 -12
-11 12 70
-71 -69
-71 -70
69 70 71
-72 11
-72 12
-11 -12 72
-73 68
-73 -71
-68 71 73
-74 -68
-74 71
68 -71 74
-75 -73
-75 -74
73 74 75
-76 -68
-76 -71
68 71 76
-77 -72
-77 -76
72 76 77
-78 -12
-78 13
12 -13 78
-79 12
-79 -13
-12 13 79
-80 -78
-80 -79
78 79 80
-81 12
-81 13
-12 -13 81
-82 77
-82 -80
-77 80 82
-83 -77
-83 80
77 -80 83
-84 -82
-84 -83
82 83 84
-85 -77
-85 -80
77 80 85
-86 -81
-86 -85
81 85 86
-87 -13
-87 14
13 -14 87
-88 13
-88 -14
-13 14 88
-89 -87
-89 -88
87 88 89
-90 13
-90 14
-13 -14 90
-91 86
-91 -89
-86 89 91
-92 -86
-92 89
86 -89 92
-93 -91
-93 -92
91 92 93
-94 -86
-94 -89
86 89 94
-95 -90
-95 -94
90 94 95
-96 -14
-96 15
14 -15 96
-97 14
-97 -15
-14 15 97
-98 -96
-98 -97
96 97 98
-99 14
-99 15
-14 -15 99
-100 95
-100 -98
-95 98 100
-101 -95
-101 98
95 -98 101
-102 -100
-102 -101
100 101 102
-103 -95
-103 -98
95 98 103
-104 -99
-104 -103
99 103 104
-105 -15
-105 16
15 -16 105
-106 15
-106 -16
-15 16 106
-107 -105
-107 -106
105 106 107
-108 15
-108 16
-15 -16 108
-109 104
-109 -107
-104 107 109
-110 -104
-110 107
104 -107 110
-111 -109
-111 -110
109 110 111
-112 -104
-112 -107
104 107 112
-113 -108
-113 -112
108 112 113
-114 -16
-114 17
16 -17 114
-115 16
-115 -17
-16 17 115
-116 -114
-116 -115
114 115 116
-117 16
-117 17
-16 -17 117
-118 113
-118 -116
-113 116 118
-119 -113
-119 116
113 -116 119
-120 -118
-120 -119
118 119 120
-121 -113
-121 -116
113 116 121
-122 -117
-122 -121
117 121 122
-123 -17
-123 18
17 -18 123
-124 17
-124 -18
-17 18 124
-125 -123
-125 -124
123 124 125
-126 17
-126 18
-17 -18 126
-127 122
-127 -125
-122 125 127
-128 -122
-128 125
122 -125 128
-129 -127
-129 -128
127 128 129
-130 -122
-130 -125
122 125 130
-131 -126
-131 -130
126 130 131
-132 -18
-132 19
18 -19 132
-133 18
-133 -19
-18 19 133
-134 -132
-134 -133
132 133 134
-135 18
-135 19
-18 -19 135
-136 131
-136 -134
-131 134 136
-137 -131
-137 134
131 -134 137
-138 -136
-138 -137
136 137 138
-139 -131
-139 -134
131 134 139
-140 -135
-140 -139
135 139 140
-141 -19
-141 20
19 -20 141
-142 19
-142 -20
-19 20 142
-143 -141
-143 -142
141 142 143
-144 19
-144 20
-19 -20 144
-145 140
-145 -143
-140 143 145
-146 -140
-146 143
140 -143 146
-147 -145
-147 -146
145 146 147
-148 -140
-148 -143
140 143 148
-149 -144
-149 -148
144 148 149
-150 7
-150 -39
-7 39 150
-151 -7
-151 9
7 -9 151
-152 -150
-152 -151
150 151 152
-153 7
-153 -48
-7 48 153
-154 -7
-154 10
7 -10 154
-155 -153
-155 -154
153 154 155
-156 7
-156 -57
-7 57 156
-157 -7
-157 11
7 -11 157
-158 -156
-158 -157
156 157 158
-159 7
-159 -66
-7 66 159
-160 -7
-160 12
7 -12 160
-161 -159
-161 -160
159 160 161
-162 7
-162 -75
-7 75 162
-163 -7
-163 13
7 -13 163
-164 -162
-164 -163
162 163 164
-165 7
-165 -84
-7 84 165
-166 -7
-166 14
7 -14 166
-167 -165
-167 -166
165 166 167
-168 7
-168 -93
-7 93 168
-169 -7
-169 15
7 -15 169
-170 -168
-170 -169
168 169 170
-171 7
-171 -102
-7 102 171
-172 -7
-172 16
7 -16 172
-173 -171
-173 -172
171 172 173
-174 7
-174 -111
-7 111 174
-175 -7
-175 17
7 -17 175
-176 -174
-176 -175
174 175 176
-177 7
-177 -120
-7 120 177
-178 -7
-178 18
7 -18 178
-179 -177
-179 -178
177 178 179
-180 7
-180 -129
-7 129 180
-181 -7
-181 19
7 -19 181
-182 -180
-182 -181
180 181 182
-183 7
-183 -138
-7 138 183
-184 -7
-184 20
7 -20 184
-185 -183
-185 -184
183 184 185
-186 7
-186 -147
-7 147 186
-187 1
-187 32
-1 -32 187
-188 -32
-188 33
32 -33 188
-189 -187
-189 -188
187 188 189
-190 2
-190 32
-2 -32 190
-191 -32
-191 -152
32 152 191
-192 -190
-192 -191
190 191 192
-193 3
-193 32
-3 -32 193
-194 -32
-194 -155
32 155 194
-195 -193
-195 -194
193 194 195
-196 4
-196 32
-4 -32 196
-197 -32
-197 -158
32 158 197
-198 -196
-198 -197
196 197 198
-199 5
-199 32
-5 -32 199
-200 -32
-200 -161
32 161 200
-201 -199
-201 -200
199 200 201
-202 6
-202 32
-6 -32 202
-203 -32
-203 -164
32 164 203
-204 -202
-204 -203
202 203 204
-205 -32
-205 -167
32 167 205
-206 -32
-206 -170
32 170 206
-207 -32
-207 -173
32 173 207
-208 -32
-208 -176
32 176 208
-209 -32
-209 -179
32 179 209
-210 -32
-210 -182
32 182 210
-211 -32
-211 -185
32 185 211
-212 -32
-212 186
32 -186 212
-213 -20
-213 149
20 -149 213
-214 7
-214 -213
-7 213 214
214
